NAME
ROWS
 N  OBJ
 G  c1
 G  c2
 G  c3
 G  c4
 G  c5
 G  c6
 G  c7
 G  c8
 G  c9
 G  c10
COLUMNS
    MARKER    'MARKER'                 'INTORG'
    x[1]      c1        1
    x[1]      OBJ       1
    x[2]      c2        1
    x[2]      c8        1
    x[2]      OBJ       1
    x[3]      c3        1
    x[3]      OBJ       1
    x[4]      c4        1
    x[4]      OBJ       1
    x[5]      c5        1
    x[5]      c6        1
    x[5]      c7        1
    x[5]      OBJ       1
    x[6]      c5        1
    x[6]      c6        1
    x[6]      c9        1
    x[6]      OBJ       1
    x[7]      c5        1
    x[7]      c7        1
    x[7]      OBJ       1
    x[8]      c2        1
    x[8]      c8        1
    x[8]      OBJ       1
    x[9]      c6        1
    x[9]      c9        1
    x[9]      OBJ       1
    x[10]     c10       1
    x[10]     OBJ       1
    MARKER    'MARKER'                 'INTEND'
RHS
    rhs       c1        1
    rhs       c2        1
    rhs       c3        1
    rhs       c4        1
    rhs       c5        1
    rhs       c6        1
    rhs       c7        1
    rhs       c8        1
    rhs       c9        1
    rhs       c10       1
RANGES
BOUNDS
 BV bounds    x[1]
 BV bounds    x[2]
 BV bounds    x[3]
 BV bounds    x[4]
 BV bounds    x[5]
 BV bounds    x[6]
 BV bounds    x[7]
 BV bounds    x[8]
 BV bounds    x[9]
 BV bounds    x[10]
ENDATA
